# Solution for model F-JSSP-SDST
# Objective value = 216
B0(10) 0
B1(10) 1
B2(8) 0
B3(8) 1
B4(10) 1
B5(10) 0
B6(8) 1
B7(8) 0
B8(2) 0
B9(2) 0
B10(2) 0
B11(2) 0
B12(2) 0
B13(2) 0
B14(2) 0
B15(2) 0
C16(10) 0
C17(10) 0
C18(10) 0
C19(10) 40
C20(10) 0
C21(10) 0
C22(10) 49
C23(10) 0
C24(1) 216
